c ---- [ banner ] ------------------------------------------------------------
c
c Kissat SAT Solver
c 
c Copyright (c) 2021-2024 Armin Biere University of Freiburg
c Copyright (c) 2019-2021 Armin Biere Johannes Kepler University Linz
c 
c Version 4.0.1 43f02cf3e992cb44653b35e5cb26f93281552ae0
c gcc (Ubuntu 13.2.0-23ubuntu4) 13.2.0 -W -Wall -O3 -DNDEBUG
c Thu Sep 12 12:27:46 CEST 2024 Linux abryzen9 6.8.0-41-generic x86_64
c
c ---- [ parsing ] -----------------------------------------------------------
c
c opened and reading DIMACS file:
c
c   /data/artifact/AMulet2.0_artifact/exp4/cnf_resyn3_64/64_64_U1_WT_KS_Multgen_resyn3.cnf
c
c parsed 'p cnf 28448 123198' header
c closing input after reading 2429874 bytes (2 MB)
c finished parsing after 0.02 seconds
c
c ---- [ options ] -----------------------------------------------------------
c
c --stable=0                       (different from default '1')
c
c ---- [ solving ] -----------------------------------------------------------
c
c  seconds switched rate     size/glue tier1  binary           remaining
c         MB reductions conflicts size  tier2     irredundant
c          level restarts redundant glue  trail           variables
c
c *  0.02 10 0 0 0  0 0   0   0 0.0 0 0 0 0 0% 14638 108558 28445 100%
c (  0.03 11 0 0 0  0 0   0   0 0.0 0 0 0 0 0% 14638 108558 28445 100%
c .  0.04 12 0 0 0  0 0   0   0 0.0 0 0 0 0 0% 14634 108558 28445 100%
c c  0.09 17 0 0 0  0 0   0   0 0.0 0 0 0 0 0% 14645 108557 28443 100%
c d  0.09 17 0 0 0  0 0   0   0 0.0 0 0 0 0 0% 14641 108557 28443 100%
c f  0.21 16 0 0 0  0 0   0   0 0.0 0 0 0 0 0% 19390 101088 31123 109%
c e  0.34 24 0 0 0  0 0   0   0 0.0 0 0 0 0 0% 13462 109231 22318 78%
c )  0.34 24 0 0 0  0 0   0   0 0.0 0 0 0 0 0% 13462 109231 22318 78%
c {  0.35 26 0 0 0  0 0   0   0 0.0 0 0 2 6 0% 13462 109231 22318 78%
c -  0.52 26 112 0 1 328 40 1001 707 2.6 11 4 3 9 15% 13641 109231 22318 78%
c -  0.74 26 258 0 2 487 44 2002 1457 2.8 21 8 2 10 19% 13678 109231 22318 78%
c d  0.83 26 246 0 2 526 39 2504 1904 2.8 21 7 2 10 22% 13696 109231 22316 78%
c u  0.85 26 246 0 2 526 39 2504 1696 2.8 21 7 2 10 22% 13699 109231 22316 78%
c v  0.87 26 246 0 2 526 39 2504 1400 2.8 21 7 2 10 22% 13699 109231 22316 78%
c w  0.89 26 246 0 2 526 39 2504 1400 2.8 21 7 2 10 22% 13699 109231 22316 78%
c x  0.90 26 246 0 2 526 39 2504 1400 2.8 21 7 2 10 22% 13700 109188 22316 78%
c t  0.92 26 246 0 2 526 39 2504 1400 2.8 21 7 2 10 22% 13694 109188 22316 78%
c f  0.95 26 246 0 2 526 39 2504 1400 2.8 21 7 2 10 22% 14325 107926 22879 80%
c u  1.04 23 246 0 2 526 39 2504 1381 2.8 21 7 2 10 22% 14328 107926 22879 80%
c v  1.07 23 246 0 2 526 39 2504 1340 2.8 21 7 2 10 22% 14328 107926 22879 80%
c
c  seconds   switched   rate       size/glue tier1     binary           remaining
c         MB  reductions conflicts       size  tier2       irredundant
c           level restarts    redundant    glue    trail           variables
c
c w  1.10 23 246 0 2 526 39 2504 1337 2.8 21 7 2 10 22% 14328 107926 22879 80%
c f  1.26 26 246 0 2 526 39 2504 1337 2.8 21 7 2 10 22% 14354 107886 22892 80%
c -  1.51 28 297 0 3 619 37 3416 1869 3.2 22 7 3 11 22% 14419 107886 22892 80%
c -  1.82 28 327 0 4 716 32 5148 2937 3.2 21 6 3 10 22% 14540 107886 22892 80%
c -  2.58 28 348 0 5 983 33 7152 3910 3.6 24 7 2 10 24% 14637 107886 22892 80%
c d  2.81 28 363 0 5 1037 35 7712 4359 3.8 26 7 2 10 24% 14626 107886 22869 80%
c u  2.85 28 363 0 5 1037 35 7712 3799 3.8 26 7 2 10 24% 14647 107886 22869 80%
c v  2.90 28 363 0 5 1037 35 7712 3267 3.8 26 7 2 10 24% 14649 107886 22869 80%
c w  2.99 28 363 0 5 1037 35 7712 3267 3.8 26 7 2 10 24% 14649 107886 22869 80%
c d  3.00 28 363 0 5 1037 35 7712 3266 3.8 26 7 2 10 24% 14645 107886 22867 80%
c t  3.03 28 363 0 5 1037 35 7712 3266 3.8 26 7 2 10 24% 14629 107886 22867 80%
c f  3.08 28 363 0 5 1037 35 7712 3266 3.8 26 7 2 10 24% 17179 104055 24142 85%
c u  3.13 28 363 0 5 1037 35 7712 3155 3.8 26 7 2 10 24% 17182 104055 24142 85%
c v  3.17 28 363 0 5 1037 35 7712 3024 3.8 26 7 2 10 24% 17182 104055 24142 85%
c w  3.23 28 363 0 5 1037 35 7712 3023 3.8 26 7 2 10 24% 17182 104055 24142 85%
c x  3.26 28 363 0 5 1037 35 7712 3023 3.8 26 7 2 10 24% 17183 104051 24142 85%
c t  3.29 28 363 0 5 1037 35 7712 3023 3.8 26 7 2 10 24% 17125 104051 24142 85%
c f  3.35 28 363 0 5 1037 35 7712 3023 3.8 26 7 2 10 24% 18767 101584 24967 88%
c -  3.82 28 350 0 6 1169 33 9388 3863 4.0 28 7 2 10 25% 18812 101584 24967 88%
c o  3.86 28 353 0 6 1171 33 10083 4449 3.9 26 7 2 10 24% 18874 101584 24967 88%
c
c  seconds   switched    rate        size/glue tier1    binary           remaining
c         MB  reductions   conflicts       size  tier2      irredundant
c           level  restarts     redundant    glue   trail           variables
c
c -  4.38 28 360 0 7 1330 32 11840 5095 4.0 28 7 2 9 24% 18975 101584 24967 88%
c s  4.61 28 362 0 7 1384 32 12519 5664 4.1 29 7 2 9 24% 19012 101391 24967 88%
c e  4.75 28 362 0 7 1384 32 12519 5664 4.1 29 7 2 9 24% 17544 102550 23852 84%
c 2  4.75 28 362 0 7 1384 32 12519 5664 4.1 29 7 2 9 24% 17543 102550 23852 84%
c s  4.76 28 362 0 7 1384 32 12519 5664 4.1 29 7 2 9 24% 17554 102120 23852 84%
c e  4.78 28 362 0 7 1384 32 12519 5664 4.1 29 7 2 9 24% 17438 102202 23795 84%
c ^  4.78 28 362 0 7 1384 32 12519 5664 4.1 29 7 2 9 24% 17438 102202 23795 84%
c -  5.15 28 382 0 8 1482 31 14486 6058 4.0 27 7 2 9 24% 17535 102200 23795 84%
c c  5.76 28 376 0 8 1629 32 15797 7261 4.2 30 7 2 9 25% 17583 102140 23783 84%
c d  5.77 28 376 0 8 1629 32 15797 7240 4.2 30 7 2 9 25% 17192 102140 23565 83%
c u  5.82 28 376 0 8 1629 32 15797 6190 4.2 30 7 2 9 25% 17214 102140 23565 83%
c v  5.88 28 376 0 8 1629 32 15797 5367 4.2 30 7 2 9 25% 17215 102140 23565 83%
c w  6.03 28 376 0 8 1629 32 15797 5361 4.2 30 7 2 9 25% 17215 102140 23565 83%
c =  6.26 28 376 0 8 1629 32 15797 5361 4.2 30 7 2 9 25% 17227 102140 23559 83%
c d  6.27 28 376 0 8 1629 32 15797 5360 4.2 30 7 2 9 25% 17204 102140 23555 83%
c t  6.30 28 376 0 8 1629 32 15797 5360 4.2 30 7 2 9 25% 17141 102140 23555 83%
c f  6.35 28 376 0 8 1629 32 15797 5360 4.2 30 7 2 9 25% 17189 101837 23678 83%
c u  6.41 28 376 0 8 1629 32 15797 5151 4.2 30 7 2 9 25% 17196 101837 23678 83%
c v  6.45 28 376 0 8 1629 32 15797 5041 4.2 30 7 2 9 25% 17196 101837 23678 83%
c w  6.62 28 376 0 8 1629 32 15797 5017 4.2 30 7 2 9 25% 17196 101837 23678 83%
c
c  seconds   switched    rate        size/glue tier1    binary           remaining
c         MB  reductions   conflicts       size  tier2      irredundant
c           level  restarts     redundant    glue   trail           variables
c
c d  6.63 28 376 0 8 1629 32 15797 5016 4.2 30 7 2 9 25% 17194 101837 23677 83%
c t  6.66 28 376 0 8 1629 32 15797 5016 4.2 30 7 2 9 25% 17190 101837 23677 83%
c -  7.08 28 375 0 9 1760 31 17314 5661 4.3 30 7 2 8 24% 17284 101836 23677 83%
c o  7.91 28 371 0 9 2005 31 20187 8221 4.2 31 7 2 8 25% 17377 101831 23677 83%
c -  7.97 28 370 0 10 2025 31 20314 7371 4.3 31 7 2 8 25% 17379 101831 23677 83%
c -  8.93 28 362 0 11 2233 30 23476 8836 4.0 32 8 2 8 24% 17490 101830 23677 83%
c s  9.20 28 369 0 11 2277 29 25033 10229 3.9 31 8 2 8 25% 17553 101675 23677 83%
c e  9.36 28 369 0 11 2277 29 25033 10229 3.9 31 8 2 8 25% 12986 108575 21067 74%
c 2  9.36 28 369 0 11 2277 29 25033 10229 3.9 31 8 2 8 25% 12985 108575 21067 74%
c s  9.38 28 369 0 11 2277 29 25033 10229 3.9 31 8 2 8 25% 13010 108231 21067 74%
c e  9.40 28 369 0 11 2277 29 25033 10229 3.9 31 8 2 8 25% 12961 108269 21046 74%
c ^  9.40 28 369 0 11 2277 29 25033 10229 3.9 31 8 2 8 25% 12961 108269 21046 74%
c -  9.83 28 361 0 12 2379 29 26792 8918 3.9 31 8 2 8 25% 13000 108267 21046 74%
c d  9.86 28 360 0 12 2381 29 26935 9054 3.9 31 8 2 8 25% 12706 108265 20871 73%
c u  9.93 28 360 0 12 2381 29 26935 7723 3.9 31 8 2 8 25% 12738 108265 20871 73%
c v  9.99 28 360 0 12 2381 29 26935 6898 3.9 31 8 2 8 25% 12744 108265 20871 73%
c w 10.00 28 360 0 12 2381 29 26935 6895 3.9 31 8 2 8 25% 12744 108265 20871 73%
c x 10.09 28 360 0 12 2381 29 26935 6895 3.9 31 8 2 8 25% 12746 107757 20871 73%
c = 10.37 28 360 0 12 2381 29 26935 6895 3.9 31 8 2 8 25% 13036 107757 20726 73%
c d 10.38 28 360 0 12 2381 29 26935 6878 3.9 31 8 2 8 25% 12727 107757 20720 73%
c
c  seconds   switched     rate        size/glue tier1    binary           remaining
c         MB   reductions   conflicts       size  tier2      irredundant
c           level   restarts     redundant    glue   trail           variables
c
c t 10.40 28 360 0 12 2381 29 26935 6878 3.9 31 8 2 8 25% 12701 107757 20720 73%
c f 10.49 28 360 0 12 2381 29 26935 6878 3.9 31 8 2 8 25% 12753 107554 20765 73%
c u 10.56 28 360 0 12 2381 29 26935 6601 3.9 31 8 2 8 25% 12759 107554 20765 73%
c v 10.60 28 360 0 12 2381 29 26935 6454 3.9 31 8 2 8 25% 12759 107554 20765 73%
c w 10.61 28 360 0 12 2381 29 26935 6453 3.9 31 8 2 8 25% 12759 107554 20765 73%
c = 10.90 28 360 0 12 2381 29 26935 6453 3.9 31 8 2 8 25% 13811 107554 20239 71%
c d 10.91 28 360 0 12 2381 29 26935 6373 3.9 31 8 2 8 25% 12715 107554 20239 71%
c t 10.93 28 360 0 12 2381 29 26935 6373 3.9 31 8 2 8 25% 12713 107554 20239 71%
c - 11.59 28 344 0 13 2533 27 30256 8429 3.9 30 8 2 8 25% 12800 107550 20239 71%
c - 12.52 28 336 0 14 2787 27 33862 10293 4.0 31 8 2 7 25% 12947 107549 20239 71%
c - 13.54 28 330 0 15 3027 28 37604 11990 4.1 32 8 2 7 25% 13017 107548 20239 71%
c o 14.24 28 323 0 15 3193 27 40287 14210 4.1 32 8 2 7 25% 13100 107548 20239 71%
c c 14.73 28 317 0 15 3332 27 41278 15082 4.1 32 8 2 7 25% 13211 106815 20104 71%
c d 14.74 28 317 0 15 3332 27 41278 14862 4.1 32 8 2 7 25% 12941 106815 20104 71%
c u 14.84 28 317 0 15 3332 27 41278 12654 4.1 32 8 2 7 25% 12989 106815 20104 71%
c v 14.94 28 317 0 15 3332 27 41278 11413 4.1 32 8 2 7 25% 12992 106815 20104 71%
c w 15.01 28 317 0 15 3332 27 41278 11412 4.1 32 8 2 7 25% 12992 106815 20104 71%
c x 15.09 28 317 0 15 3332 27 41278 11412 4.1 32 8 2 7 25% 12993 104242 20104 71%
c = 15.44 28 317 0 15 3332 27 41278 11412 4.1 32 8 2 7 25% 16391 104238 18405 65%
c d 15.45 28 317 0 15 3332 27 41278 11234 4.1 32 8 2 7 25% 12907 104238 18404 65%
c
c  seconds   switched     rate         size/glue tier1    binary           remaining
c         MB   reductions   conflicts        size  tier2      irredundant
c           level   restarts      redundant    glue   trail           variables
c
c t 15.48 28 317 0 15 3332 27 41278 11234 4.1 32 8 2 7 25% 12772 104238 18404 65%
c f 15.53 28 317 0 15 3332 27 41278 11234 4.1 32 8 2 7 25% 12802 104143 18422 65%
c u 15.62 28 317 0 15 3332 27 41278 10540 4.1 32 8 2 7 25% 12808 104143 18422 65%
c v 15.69 28 317 0 15 3332 27 41278 10089 4.1 32 8 2 7 25% 12808 104143 18422 65%
c w 15.83 28 317 0 15 3332 27 41278 10086 4.1 32 8 2 7 25% 12808 104143 18422 65%
c x 15.90 28 317 0 15 3332 27 41278 10084 4.1 32 8 2 7 25% 12839 101099 18422 65%
c = 16.25 28 317 0 15 3332 27 41278 10084 4.1 32 8 2 7 25% 17309 101099 16187 57%
c d 16.26 28 317 0 15 3332 27 41278 9788 4.1 32 8 2 7 25% 12719 101099 16187 57%
c t 16.28 28 317 0 15 3332 27 41278 9788 4.1 32 8 2 7 25% 12526 101099 16187 57%
c f 16.34 28 317 0 15 3332 27 41278 9788 4.1 32 8 2 7 25% 12557 100970 16213 57%
c - 16.41 28 317 0 16 3337 27 41476 7763 4.1 32 8 1 7 25% 12562 100970 16213 57%
c - 17.44 28 300 0 17 3654 27 45476 9394 4.0 31 8 1 7 26% 12611 100970 16213 57%
c - 18.69 28 290 0 18 4059 26 49600 11095 4.0 31 8 1 6 26% 12671 100968 16213 57%
c s 19.47 28 281 0 18 4320 26 52167 13534 4.0 31 8 1 6 26% 12694 77446 16213 57%
c e 19.58 28 281 0 18 4320 26 52167 13534 4.0 31 8 1 6 26% 11837 79156 15490 54%
c 2 19.59 28 281 0 18 4320 26 52167 13534 4.0 31 8 1 6 26% 11830 79156 15490 54%
c s 19.60 28 281 0 18 4320 26 52167 13534 4.0 31 8 1 6 26% 11835 78677 15490 54%
c e 19.61 28 281 0 18 4320 26 52167 13534 4.0 31 8 1 6 26% 11790 78741 15464 54%
c ^ 19.61 28 281 0 18 4320 26 52167 13534 4.0 31 8 1 6 26% 11790 78741 15464 54%
c - 20.10 28 281 0 19 4490 26 53843 11487 4.0 31 8 1 6 26% 11812 78741 15464 54%
c
c  seconds   switched     rate         size/glue tier1    binary          remaining
c         MB   reductions   conflicts        size  tier2      irredundant
c           level   restarts      redundant    glue   trail          variables
c
c - 20.96 28 275 0 20 4826 26 58202 12766 3.8 31 8 1 6 27% 11857 78740 15464 54%
c c 21.17 28 273 0 20 4878 25 58913 13426 3.8 31 8 1 6 27% 11886 78661 15447 54%
c d 21.18 28 273 0 20 4878 25 58913 13412 3.8 31 8 1 6 27% 11852 78661 15447 54%
c u 21.23 28 273 0 20 4878 25 58913 11834 3.8 31 8 1 6 27% 11855 78661 15447 54%
c v 21.33 28 273 0 20 4878 25 58913 9546 3.8 31 8 1 6 27% 11864 78661 15447 54%
c w 21.40 28 273 0 20 4878 25 58913 9522 3.8 31 8 1 6 27% 11864 78661 15447 54%
c x 21.55 28 273 0 20 4878 25 58913 9520 3.8 31 8 1 6 27% 11877 77287 15447 54%
c = 22.00 28 273 0 20 4878 25 58913 9520 3.8 31 8 1 6 27% 14089 77285 14341 50%
c d 22.01 28 273 0 20 4878 25 58913 9395 3.8 31 8 1 6 27% 11782 77285 14341 50%
c t 22.03 28 273 0 20 4878 25 58913 9395 3.8 31 8 1 6 27% 11516 77285 14341 50%
c f 22.08 28 273 0 20 4878 25 58913 9395 3.8 31 8 1 6 27% 11514 76946 14397 51%
c c 22.14 28 273 0 20 4878 25 58913 9395 3.8 31 8 1 6 27% 11522 76937 14393 51%
c d 22.15 28 273 0 20 4878 25 58913 9395 3.8 31 8 1 6 27% 11514 76937 14393 51%
c u 22.20 28 273 0 20 4878 25 58913 9042 3.8 31 8 1 6 27% 11503 76937 14393 51%
c v 22.25 28 273 0 20 4878 25 58913 8630 3.8 31 8 1 6 27% 11503 76937 14393 51%
c w 22.31 28 273 0 20 4878 25 58913 8606 3.8 31 8 1 6 27% 11503 76937 14393 51%
c x 22.51 28 273 0 20 4878 25 58913 8601 3.8 31 8 1 6 27% 11557 69895 14393 51%
c = 22.91 28 273 0 20 4878 25 58913 8601 3.8 31 8 1 6 27% 11699 69895 14322 50%
c d 22.92 28 273 0 20 4878 25 58913 8597 3.8 31 8 1 6 27% 11557 69895 14322 50%
c t 22.94 28 273 0 20 4878 25 58913 8597 3.8 31 8 1 6 27% 11504 69895 14322 50%
c
c  seconds   switched     rate        size/glue tier1    binary          remaining
c         MB   reductions   conflicts       size  tier2      irredundant
c           level   restarts     redundant    glue   trail          variables
c
c f 22.95 28 273 0 20 4878 25 58913 8597 3.8 31 8 1 6 27% 11502 69860 14328 50%
c - 23.58 28 269 0 21 5099 25 62674 9896 3.8 30 8 1 6 27% 11552 69859 14328 50%
c - 24.54 28 262 0 22 5480 25 67256 11954 3.7 30 8 1 6 27% 11585 69858 14328 50%
c o 25.30 28 257 0 22 5799 25 70291 14811 3.7 30 8 1 6 27% 11613 69858 14328 50%
c - 25.56 28 253 0 23 5948 25 71946 13706 3.7 30 8 1 6 27% 11632 69858 14328 50%
c - 26.25 28 247 0 24 6416 24 76741 15240 3.7 30 8 1 6 28% 11660 69857 14328 50%
c d 26.81 28 245 0 24 6788 24 79995 18293 3.7 30 8 1 6 28% 11663 69855 14317 50%
c u 26.85 28 245 0 24 6788 24 79995 16543 3.7 30 8 1 6 28% 11691 69855 14317 50%
c v 26.93 28 245 0 24 6788 24 79995 13685 3.7 30 8 1 6 28% 11697 69855 14317 50%
c w 26.99 28 245 0 24 6788 24 79995 13685 3.7 30 8 1 6 28% 11697 69855 14317 50%
c x 27.06 28 245 0 24 6788 24 79995 13678 3.7 30 8 1 6 28% 11699 69421 14317 50%
c = 27.28 28 245 0 24 6788 24 79995 13678 3.7 30 8 1 6 28% 11857 69404 14237 50%
c d 27.29 28 245 0 24 6788 24 79995 13661 3.7 30 8 1 6 28% 11686 69404 14235 50%
c t 27.30 28 245 0 24 6788 24 79995 13661 3.7 30 8 1 6 28% 11617 69404 14235 50%
c f 27.31 28 245 0 24 6788 24 79995 13661 3.7 30 8 1 6 28% 11612 69392 14238 50%
c c 27.34 28 245 0 24 6788 24 79995 13653 3.7 30 8 1 6 28% 11621 69374 14234 50%
c d 27.35 28 245 0 24 6788 24 79995 13653 3.7 30 8 1 6 28% 11613 69374 14234 50%
c u 27.38 28 245 0 24 6788 24 79995 13250 3.7 30 8 1 6 28% 11607 69374 14234 50%
c v 27.43 28 245 0 24 6788 24 79995 12732 3.7 30 8 1 6 28% 11608 69374 14234 50%
c w 27.55 28 245 0 24 6788 24 79995 12723 3.7 30 8 1 6 28% 11608 69374 14234 50%
c
c  seconds   switched     rate         size/glue tier1    binary          remaining
c         MB   reductions   conflicts        size  tier2      irredundant
c           level   restarts      redundant    glue   trail          variables
c
c x 27.63 28 245 0 24 6788 24 79995 12722 3.7 30 8 1 6 28% 11611 68824 14234 50%
c = 28.02 28 245 0 24 6788 24 79995 12722 3.7 30 8 1 6 28% 11989 68811 14044 49%
c d 28.02 28 245 0 24 6788 24 79995 12669 3.7 30 8 1 6 28% 11586 68811 14044 49%
c t 28.03 28 245 0 24 6788 24 79995 12669 3.7 30 8 1 6 28% 11358 68811 14044 49%
c f 28.04 28 245 0 24 6788 24 79995 12669 3.7 30 8 1 6 28% 11350 68762 14054 49%
c - 28.23 28 242 0 25 6908 24 81641 11883 3.7 30 8 1 6 28% 11383 68761 14054 49%
c i 28.29 28 240 0 25 6943 24 82436 12599 3.7 30 8 1 6 28% 11399 68761 14053 49%
c - 28.65 28 236 0 26 7187 23 86643 13978 3.6 29 8 1 6 28% 11439 68758 14053 49%
c i 28.79 28 232 0 26 7257 23 88838 15984 3.6 29 8 1 6 27% 11467 68758 14052 49%
c i 28.98 28 231 0 26 7386 23 90516 17536 3.6 29 8 1 6 27% 11491 68758 14051 49%
c i 29.05 28 229 0 26 7423 23 91161 18117 3.6 29 8 1 6 27% 11501 68758 14050 49%
c - 29.08 28 229 0 27 7440 23 91742 15849 3.6 29 8 1 6 27% 11494 68755 14050 49%
c i 29.11 28 227 0 27 7471 22 92514 16483 3.6 29 8 1 6 27% 11518 68755 14045 49%
c i 29.17 28 226 0 27 7517 22 92979 16884 3.6 29 8 1 6 27% 11525 68755 14044 49%
c s 29.56 28 224 0 27 7760 22 95831 19588 3.6 29 8 1 6 27% 11533 68224 14044 49%
c e 29.65 28 224 0 27 7760 22 95831 19588 3.6 29 8 1 6 27% 8033 76556 12266 43%
c 2 29.65 28 224 0 27 7760 22 95831 19588 3.6 29 8 1 6 27% 8022 76556 12266 43%
c s 29.67 28 224 0 27 7760 22 95831 19588 3.6 29 8 1 6 27% 8061 76042 12266 43%
c e 29.68 28 224 0 27 7760 22 95831 19588 3.6 29 8 1 6 27% 7976 76219 12221 43%
c ^ 29.68 28 224 0 27 7760 22 95831 19588 3.6 29 8 1 6 27% 7976 76219 12221 43%
c
c  seconds   switched     rate         size/glue tier1    binary         remaining
c         MB   reductions   conflicts        size  tier2     irredundant
c           level   restarts      redundant    glue   trail         variables
c
c i 29.72 28 224 0 27 7797 22 96157 13694 3.6 29 8 1 6 27% 7986 76219 12220 43%
c - 29.86 28 223 0 28 7893 22 96938 12537 3.6 29 8 1 5 27% 7984 76207 12220 43%
c i 29.86 28 223 0 28 7893 22 97000 12575 3.6 29 8 1 5 27% 7989 76207 12219 43%
c - 30.46 28 216 0 29 8346 22 102229 14933 3.5 29 8 1 5 27% 8005 76207 12219 43%
c d 30.79 28 214 0 29 8588 22 104637 17235 3.5 28 8 1 5 27% 8011 76191 12216 43%
c d 30.79 28 214 0 29 8588 22 104637 17231 3.5 28 8 1 5 27% 8007 76189 12214 43%
c u 30.83 28 214 0 29 8588 22 104637 15269 3.5 28 8 1 5 27% 8042 76189 12214 43%
c v 30.89 28 214 0 29 8588 22 104637 13001 3.5 28 8 1 5 27% 8056 76189 12214 43%
c w 30.95 28 214 0 29 8588 22 104637 12980 3.5 28 8 1 5 27% 8056 76189 12214 43%
c x 31.01 28 214 0 29 8588 22 104637 12980 3.5 28 8 1 5 27% 8065 76038 12214 43%
c = 31.35 28 214 0 29 8588 22 104637 12980 3.5 28 8 1 5 27% 8221 75960 12134 43%
c d 31.36 28 214 0 29 8588 22 104637 12929 3.5 28 8 1 5 27% 8051 75960 12134 43%
c t 31.37 28 214 0 29 8588 22 104637 12929 3.5 28 8 1 5 27% 7862 75960 12134 43%
c f 31.41 28 214 0 29 8588 22 104637 12929 3.5 28 8 1 5 27% 7872 75875 12142 43%
c u 31.45 28 214 0 29 8588 22 104637 12370 3.5 28 8 1 5 27% 7887 75875 12142 43%
c v 31.48 28 214 0 29 8588 22 104637 11860 3.5 28 8 1 5 27% 7892 75875 12142 43%
c w 31.61 28 214 0 29 8588 22 104637 11541 3.5 28 8 1 5 27% 7892 75875 12142 43%
c = 31.94 28 214 0 29 8588 22 104637 11541 3.5 28 8 1 5 27% 7948 75797 12108 43%
c d 31.94 28 214 0 29 8588 22 104637 11510 3.5 28 8 1 5 27% 7891 75797 12108 43%
c t 31.95 28 214 0 29 8588 22 104637 11510 3.5 28 8 1 5 27% 7870 75797 12108 43%
c
c  seconds   switched     rate          size/glue tier1    binary         remaining
c         MB   reductions   conflicts         size  tier2     irredundant
c           level   restarts       redundant    glue   trail         variables
c
c - 32.37 28 211 0 30 8933 22 107614 12114 3.5 29 8 1 5 27% 7870 75797 12108 43%
c o 32.68 28 209 0 30 9183 22 110291 14640 3.5 28 8 1 5 27% 7874 75797 12108 43%
c i 32.87 28 209 0 30 9352 22 111387 15651 3.5 28 8 1 5 27% 7883 75797 12107 43%
c - 33.11 28 207 0 31 9546 22 113091 14503 3.4 28 8 1 5 27% 7883 75795 12107 43%
c i 33.26 28 206 0 31 9691 22 114636 15939 3.4 28 8 1 5 28% 7893 75792 12106 43%
c i 33.27 28 205 0 31 9700 22 114977 16205 3.4 28 8 1 5 28% 7905 75791 12105 43%
c i 33.29 28 205 0 31 9711 22 115164 16363 3.4 28 8 1 5 28% 7912 75791 12104 43%
c - 33.81 28 202 0 32 10125 22 118658 16379 3.4 29 8 1 5 28% 7899 75791 12104 43%
c i 33.92 28 200 0 32 10190 22 120163 17782 3.4 28 8 1 5 28% 7908 75791 12103 43%
c i 34.18 28 199 0 32 10397 22 122030 19541 3.4 28 8 1 5 28% 7924 75791 12102 43%
c - 34.44 28 196 0 33 10570 22 124314 17848 3.4 28 8 1 5 28% 7919 75790 12102 43%
c i 34.52 28 196 0 33 10620 22 124982 18477 3.4 28 8 1 5 28% 7924 75790 12101 43%
c i 34.69 28 195 0 33 10736 22 126565 19965 3.4 28 8 1 5 28% 7943 75789 12100 43%
c i 34.69 28 195 0 33 10740 22 126651 20024 3.4 28 8 1 5 28% 7946 75789 12099 43%
c i 34.75 28 194 0 33 10773 22 127085 20426 3.4 28 8 1 5 28% 7948 75789 12098 43%
c i 34.86 28 192 0 33 10854 22 128587 21811 3.3 28 8 1 5 28% 7959 75789 12097 43%
c i 34.88 28 192 0 33 10858 22 128793 22004 3.3 28 8 1 5 28% 7959 75789 12096 43%
c i 34.88 28 192 0 33 10858 22 128977 22169 3.3 28 8 1 5 28% 7962 75789 12095 43%
c i 34.88 28 192 0 33 10858 22 128994 22179 3.3 28 8 1 5 28% 7962 75789 12093 43%
c - 35.02 28 191 0 34 10972 22 130058 18799 3.3 28 8 1 5 28% 7926 75789 12093 43%
c
c  seconds   switched      rate          size/glue tier1    binary         remaining
c         MB   reductions    conflicts         size  tier2     irredundant
c           level   restarts        redundant    glue   trail         variables
c
c i 35.05 28 191 0 34 10988 21 130735 19419 3.3 28 8 1 5 28% 7937 75789 12092 43%
c i 35.06 28 190 0 34 11017 21 131038 19676 3.3 28 8 1 5 28% 7945 75789 12091 43%
c i 35.09 28 190 0 34 11032 21 131397 20001 3.3 28 8 1 5 28% 7950 75789 12090 43%
c i 35.16 28 189 0 34 11076 21 132310 20868 3.3 28 8 1 5 28% 7950 75789 12089 42%
c c 35.24 28 188 0 34 11113 21 132894 21412 3.3 28 8 1 5 28% 7948 75621 12086 42%
c d 35.24 28 188 0 34 11113 21 132894 21155 3.3 28 8 1 5 28% 7992 75571 12086 42%
c d 35.25 28 188 0 34 11113 21 132894 21126 3.3 28 8 1 5 28% 7954 75557 12067 42%
c u 35.29 28 188 0 34 11113 21 132894 18664 3.3 28 8 1 5 28% 7980 75557 12064 42%
c v 35.36 28 188 0 34 11113 21 132894 15503 3.3 28 8 1 5 28% 7987 75557 12064 42%
c w 35.42 28 188 0 34 11113 21 132894 15337 3.3 28 8 1 5 28% 7987 75557 12064 42%
c x 35.49 28 188 0 34 11113 21 132894 15322 3.3 28 8 1 5 28% 8012 75087 12064 42%
c = 35.89 28 188 0 34 11113 21 132894 15322 3.3 28 8 1 5 28% 8019 75076 12056 42%
c d 35.89 28 188 0 34 11113 21 132894 15301 3.3 28 8 1 5 28% 8002 75075 12054 42%
c t 35.90 28 188 0 34 11113 21 132894 15301 3.3 28 8 1 5 28% 7943 75075 12054 42%
c u 35.95 28 188 0 34 11113 21 132894 14787 3.3 28 8 1 5 28% 7949 75075 12054 42%
c v 35.99 28 188 0 34 11113 21 132894 14161 3.3 28 8 1 5 28% 7951 75075 12054 42%
c w 36.06 28 188 0 34 11113 21 132894 13836 3.3 28 8 1 5 28% 7951 75075 12054 42%
c x 36.17 28 188 0 34 11113 21 132894 13815 3.3 28 8 1 5 28% 8001 73329 12054 42%
c = 36.58 28 188 0 34 11113 21 132894 13815 3.3 28 8 1 5 28% 8013 73329 12048 42%
c d 36.59 28 188 0 34 11113 21 132894 13812 3.3 28 8 1 5 28% 7999 73329 12048 42%
c
c  seconds   switched      rate          size/glue tier1    binary         remaining
c         MB   reductions    conflicts         size  tier2     irredundant
c           level   restarts        redundant    glue   trail         variables
c
c t 36.59 28 188 0 34 11113 21 132894 13812 3.3 28 8 1 5 28% 7962 73329 12048 42%
c i 36.60 28 188 0 34 11113 21 132894 13812 3.3 28 8 1 5 28% 7962 73329 12048 42%
c i 36.63 28 188 0 34 11127 21 133385 14261 3.3 28 8 1 5 28% 7964 73327 12047 42%
c - 36.68 28 183 0 35 11153 21 135888 13678 3.3 27 8 1 5 28% 8000 73326 12047 42%
c i 36.69 28 182 0 35 11159 20 136298 14031 3.3 27 8 1 5 27% 8012 73326 12046 42%
c i 36.71 28 179 0 35 11169 20 137749 15249 3.3 27 8 1 5 27% 8063 73325 12027 42%
c i 36.72 28 179 0 35 11169 20 137829 15303 3.3 27 8 1 5 27% 8073 73325 12025 42%
c i 36.72 28 179 0 35 11169 20 137852 15318 3.3 27 8 1 5 27% 8079 73325 11965 42%
c i 36.72 28 179 0 35 11169 20 137854 15318 3.3 27 8 1 5 27% 8080 73325 11964 42%
c i 36.72 28 179 0 35 11169 20 137861 15319 3.3 27 8 1 5 27% 8083 73325 11962 42%
c i 36.72 28 179 0 35 11169 20 137865 15320 3.3 27 8 1 5 27% 8084 73325 11951 42%
c i 36.72 28 179 0 35 11169 20 137866 15320 3.3 27 8 1 5 27% 8084 73325 11950 42%
c i 36.72 28 179 0 35 11169 20 137868 15320 3.3 27 8 1 5 27% 8085 73325 11945 42%
c } 36.72 28 179 0 35 11169 20 137870 15320 3.3 27 8 1 5 27% 8085 73325 11873 42%
c 0 36.72 28 179 0 35 11169 20 137870 15320 3.3 27 8 1 5 27% 8085 73325 11873 42%
c
c ---- [ result ] ------------------------------------------------------------
c
s UNSATISFIABLE
c
c ---- [ profiling ] ---------------------------------------------------------
c
c          25.15   68.49 %  search
c          25.15   68.49 %  focused
c          11.22   30.55 %  simplify
c          10.65   29.00 %  probe
c           4.56   12.41 %  sweep
c           4.08   11.11 %  vivify
c           0.77    2.09 %  factor
c           0.74    2.03 %  eliminate
c           0.56    1.53 %  substitute
c           0.44    1.19 %  congruence
c           0.30    0.82 %  preprocess
c           0.19    0.52 %  reduce
c           0.16    0.43 %  transitive
c           0.13    0.36 %  subsume
c           0.12    0.33 %  fastel
c           0.09    0.24 %  backbone
c           0.03    0.08 %  lucky
c           0.02    0.06 %  parse
c =============================================
c          36.72  100.00 %  total
c
c ---- [ statistics ] --------------------------------------------------------
c
c chronological:                         5678                4 %  conflicts
c conflicts:                           137870             3755.00 per second
c congruent:                              177                1 %  variables
c decisions:                          2903705               21.06 per conflict
c eliminated:                           15180               53 %  variables
c factored:                              5651               20 %  variables
c fast_eliminated:                       8805               58 %  eliminated
c fast_strengthened:                      107                8 %  per strengthened
c fast_subsumed:                           57                0 %  per subsumed
c iterations:                              38                0 %  variables
c propagations:                     138214880          3764390    per second
c reductions:                              35             3939    interval
c reordered:                                5            27574    interval
c restarts:                             11169               12    interval
c strengthened:                          1408                0 %  checks
c substituted:                           6822               24 %  variables
c subsumed:                             26080                1 %  checks
c switched:                                 0                0    interval
c vivified:                             64035               12 %  checks
c
c ---- [ glue usage ] --------------------------------------------------------
c
c focused glue 1 used 227820 clauses 60.79% accumulated 60.79% tier1
c focused glue 2 used  66499 clauses 17.74% accumulated 78.53%
c focused glue 3 used  21566 clauses  5.75% accumulated 84.28%
c focused glue 4 used  13959 clauses  3.72% accumulated 88.01%
c focused glue 5 used   8862 clauses  2.36% accumulated 90.37% tier2
c
c ---- [ resources ] ---------------------------------------------------------
c
c maximum-resident-set-size:         29806592 bytes         28 MB
c process-time:                            37s              36.72 seconds
c
c ---- [ shutting down ] -----------------------------------------------------
c
c exit 20
